p edge 50 239
e 1 3
e 1 10
e 1 16
e 1 19
e 1 23
e 1 24
e 1 31
e 1 42
e 1 43
e 1 48
e 2 5
e 2 9
e 2 13
e 2 29
e 2 41
e 2 46
e 2 47
e 2 48
e 2 49
e 2 50
e 3 4
e 3 7
e 3 12
e 3 21
e 3 40
e 3 42
e 3 43
e 3 46
e 4 9
e 4 12
e 4 16
e 4 21
e 4 26
e 4 30
e 4 43
e 4 44
e 4 46
e 4 47
e 4 50
e 5 12
e 5 13
e 5 15
e 5 16
e 5 20
e 5 24
e 5 29
e 5 32
e 5 45
e 6 9
e 6 21
e 6 35
e 6 38
e 6 44
e 7 10
e 7 12
e 7 17
e 7 19
e 7 25
e 7 37
e 7 38
e 7 43
e 7 47
e 8 23
e 8 25
e 8 27
e 8 32
e 8 40
e 8 44
e 8 49
e 9 26
e 9 27
e 9 37
e 9 40
e 9 47
e 9 48
e 9 50
e 10 11
e 10 40
e 10 43
e 10 48
e 10 49
e 11 14
e 11 18
e 11 27
e 11 38
e 11 45
e 12 15
e 12 16
e 12 20
e 12 23
e 12 25
e 12 28
e 12 29
e 12 32
e 12 33
e 12 35
e 12 36
e 12 37
e 12 38
e 13 14
e 13 17
e 13 18
e 13 22
e 13 24
e 13 26
e 13 27
e 13 28
e 13 32
e 13 44
e 13 47
e 13 49
e 14 17
e 14 20
e 14 24
e 14 31
e 14 43
e 14 46
e 15 24
e 15 29
e 15 31
e 15 39
e 15 44
e 16 17
e 16 34
e 16 35
e 16 40
e 16 42
e 16 46
e 17 20
e 17 21
e 17 24
e 17 27
e 17 28
e 17 29
e 17 32
e 17 37
e 18 25
e 18 34
e 18 38
e 18 43
e 18 45
e 19 21
e 19 23
e 19 38
e 19 42
e 19 43
e 19 44
e 19 46
e 19 48
e 20 32
e 20 41
e 20 43
e 20 44
e 20 50
e 21 24
e 21 27
e 21 31
e 21 34
e 21 35
e 21 38
e 21 43
e 21 44
e 22 28
e 22 37
e 22 39
e 22 47
e 23 27
e 23 42
e 23 43
e 23 46
e 24 27
e 24 35
e 24 41
e 24 50
e 25 26
e 25 29
e 25 37
e 25 45
e 25 46
e 26 27
e 26 30
e 26 37
e 26 38
e 26 39
e 26 40
e 26 41
e 26 43
e 26 47
e 27 29
e 27 40
e 27 50
e 28 29
e 28 32
e 28 43
e 28 44
e 29 30
e 29 43
e 29 45
e 29 46
e 30 33
e 30 43
e 31 32
e 31 34
e 31 39
e 31 44
e 31 45
e 31 47
e 32 33
e 32 46
e 33 39
e 33 46
e 34 35
e 34 37
e 34 47
e 35 44
e 35 49
e 36 37
e 36 48
e 37 42
e 37 50
e 38 39
e 38 48
e 39 45
e 39 48
e 40 46
e 40 48
e 40 49
e 41 42
e 41 43
e 41 48
e 41 50
e 42 47
e 43 47
e 44 45
e 44 50
e 45 48
e 45 49
e 45 50
e 46 50